 &bands
    prefix='graphene',
    outdir='./'
    filband='graphene.band'
    no_overlap=.true.
 /
