 &control
    calculation         = 'scf'
    restart_mode        = 'from_scratch'
    prefix              = 'graphene'
    tstress             = .false.
    tprnfor             = .true.
    pseudo_dir          = './',
    outdir              = './'
    wf_collect          = .true.
 /
 &system
    ibrav=  4, celldm(1)=4.651, celldm(3) =5, nat=  2, ntyp= 1,
    ecutwfc =80.0,
    occupations='smearing', smearing='gaussian', degauss=0.02
    nbnd = 20
/
&ELECTRONS
    diagonalization='david'
    mixing_mode = 'plain'
    mixing_beta = 0.4
    conv_thr =  1.0d-10
/
ATOMIC_SPECIES
C   12.0107    C.UPF
ATOMIC_POSITIONS
C 0.50 -0.288675135  0.0
C 0.50  0.288675135  0.0
 K_POINTS crystal
         200
        0.0000000000    0.0000000000    0.0000000000    1.0
        0.0039682143    0.0039682143    0.0000000000    1.0
        0.0079364286    0.0079364286    0.0000000000    1.0
        0.0119046429    0.0119046429    0.0000000000    1.0
        0.0158728571    0.0158728571    0.0000000000    1.0
        0.0198410714    0.0198410714    0.0000000000    1.0
        0.0238092857    0.0238092857    0.0000000000    1.0
        0.0277775000    0.0277775000    0.0000000000    1.0
        0.0317457143    0.0317457143    0.0000000000    1.0
        0.0357139286    0.0357139286    0.0000000000    1.0
        0.0396821429    0.0396821429    0.0000000000    1.0
        0.0436503571    0.0436503571    0.0000000000    1.0
        0.0476185714    0.0476185714    0.0000000000    1.0
        0.0515867857    0.0515867857    0.0000000000    1.0
        0.0555550000    0.0555550000    0.0000000000    1.0
        0.0595232143    0.0595232143    0.0000000000    1.0
        0.0634914286    0.0634914286    0.0000000000    1.0
        0.0674596429    0.0674596429    0.0000000000    1.0
        0.0714278571    0.0714278571    0.0000000000    1.0
        0.0753960714    0.0753960714    0.0000000000    1.0
        0.0793642857    0.0793642857    0.0000000000    1.0
        0.0833325000    0.0833325000    0.0000000000    1.0
        0.0873007143    0.0873007143    0.0000000000    1.0
        0.0912689286    0.0912689286    0.0000000000    1.0
        0.0952371429    0.0952371429    0.0000000000    1.0
        0.0992053571    0.0992053571    0.0000000000    1.0
        0.1031735714    0.1031735714    0.0000000000    1.0
        0.1071417857    0.1071417857    0.0000000000    1.0
        0.1111100000    0.1111100000    0.0000000000    1.0
        0.1150782143    0.1150782143    0.0000000000    1.0
        0.1190464286    0.1190464286    0.0000000000    1.0
        0.1230146429    0.1230146429    0.0000000000    1.0
        0.1269828571    0.1269828571    0.0000000000    1.0
        0.1309510714    0.1309510714    0.0000000000    1.0
        0.1349192857    0.1349192857    0.0000000000    1.0
        0.1388875000    0.1388875000    0.0000000000    1.0
        0.1428557143    0.1428557143    0.0000000000    1.0
        0.1468239286    0.1468239286    0.0000000000    1.0
        0.1507921429    0.1507921429    0.0000000000    1.0
        0.1547603571    0.1547603571    0.0000000000    1.0
        0.1587285714    0.1587285714    0.0000000000    1.0
        0.1626967857    0.1626967857    0.0000000000    1.0
        0.1666650000    0.1666650000    0.0000000000    1.0
        0.1706332143    0.1706332143    0.0000000000    1.0
        0.1746014286    0.1746014286    0.0000000000    1.0
        0.1785696429    0.1785696429    0.0000000000    1.0
        0.1825378571    0.1825378571    0.0000000000    1.0
        0.1865060714    0.1865060714    0.0000000000    1.0
        0.1904742857    0.1904742857    0.0000000000    1.0
        0.1944425000    0.1944425000    0.0000000000    1.0
        0.1984107143    0.1984107143    0.0000000000    1.0
        0.2023789286    0.2023789286    0.0000000000    1.0
        0.2063471429    0.2063471429    0.0000000000    1.0
        0.2103153571    0.2103153571    0.0000000000    1.0
        0.2142835714    0.2142835714    0.0000000000    1.0
        0.2182517857    0.2182517857    0.0000000000    1.0
        0.2222200000    0.2222200000    0.0000000000    1.0
        0.2261882143    0.2261882143    0.0000000000    1.0
        0.2301564286    0.2301564286    0.0000000000    1.0
        0.2341246429    0.2341246429    0.0000000000    1.0
        0.2380928571    0.2380928571    0.0000000000    1.0
        0.2420610714    0.2420610714    0.0000000000    1.0
        0.2460292857    0.2460292857    0.0000000000    1.0
        0.2499975000    0.2499975000    0.0000000000    1.0
        0.2539657143    0.2539657143    0.0000000000    1.0
        0.2579339286    0.2579339286    0.0000000000    1.0
        0.2619021429    0.2619021429    0.0000000000    1.0
        0.2658703571    0.2658703571    0.0000000000    1.0
        0.2698385714    0.2698385714    0.0000000000    1.0
        0.2738067857    0.2738067857    0.0000000000    1.0
        0.2777750000    0.2777750000    0.0000000000    1.0
        0.2817432143    0.2817432143    0.0000000000    1.0
        0.2857114286    0.2857114286    0.0000000000    1.0
        0.2896796429    0.2896796429    0.0000000000    1.0
        0.2936478571    0.2936478571    0.0000000000    1.0
        0.2976160714    0.2976160714    0.0000000000    1.0
        0.3015842857    0.3015842857    0.0000000000    1.0
        0.3055525000    0.3055525000    0.0000000000    1.0
        0.3095207143    0.3095207143    0.0000000000    1.0
        0.3134889286    0.3134889286    0.0000000000    1.0
        0.3174571429    0.3174571429    0.0000000000    1.0
        0.3214253571    0.3214253571    0.0000000000    1.0
        0.3253935714    0.3253935714    0.0000000000    1.0
        0.3293617857    0.3293617857    0.0000000000    1.0
        0.3333300000    0.3333300000    0.0000000000    1.0
        0.3253935714    0.3372983333    0.0000000000    1.0
        0.3174571429    0.3412666667    0.0000000000    1.0
        0.3095207143    0.3452350000    0.0000000000    1.0
        0.3015842857    0.3492033333    0.0000000000    1.0
        0.2936478571    0.3531716667    0.0000000000    1.0
        0.2857114286    0.3571400000    0.0000000000    1.0
        0.2777750000    0.3611083333    0.0000000000    1.0
        0.2698385714    0.3650766667    0.0000000000    1.0
        0.2619021429    0.3690450000    0.0000000000    1.0
        0.2539657143    0.3730133333    0.0000000000    1.0
        0.2460292857    0.3769816667    0.0000000000    1.0
        0.2380928571    0.3809500000    0.0000000000    1.0
        0.2301564286    0.3849183333    0.0000000000    1.0
        0.2222200000    0.3888866667    0.0000000000    1.0
        0.2142835714    0.3928550000    0.0000000000    1.0
        0.2063471429    0.3968233333    0.0000000000    1.0
        0.1984107143    0.4007916667    0.0000000000    1.0
        0.1904742857    0.4047600000    0.0000000000    1.0
        0.1825378571    0.4087283333    0.0000000000    1.0
        0.1746014286    0.4126966667    0.0000000000    1.0
        0.1666650000    0.4166650000    0.0000000000    1.0
        0.1587285714    0.4206333333    0.0000000000    1.0
        0.1507921429    0.4246016667    0.0000000000    1.0
        0.1428557143    0.4285700000    0.0000000000    1.0
        0.1349192857    0.4325383333    0.0000000000    1.0
        0.1269828571    0.4365066667    0.0000000000    1.0
        0.1190464286    0.4404750000    0.0000000000    1.0
        0.1111100000    0.4444433333    0.0000000000    1.0
        0.1031735714    0.4484116667    0.0000000000    1.0
        0.0952371429    0.4523800000    0.0000000000    1.0
        0.0873007143    0.4563483333    0.0000000000    1.0
        0.0793642857    0.4603166667    0.0000000000    1.0
        0.0714278571    0.4642850000    0.0000000000    1.0
        0.0634914286    0.4682533333    0.0000000000    1.0
        0.0555550000    0.4722216667    0.0000000000    1.0
        0.0476185714    0.4761900000    0.0000000000    1.0
        0.0396821429    0.4801583333    0.0000000000    1.0
        0.0317457143    0.4841266667    0.0000000000    1.0
        0.0238092857    0.4880950000    0.0000000000    1.0
        0.0158728571    0.4920633333    0.0000000000    1.0
        0.0079364286    0.4960316667    0.0000000000    1.0
        0.0000000000    0.5000000000    0.0000000000    1.0
        0.0000000000    0.4931506849    0.0000000000    1.0
        0.0000000000    0.4863013699    0.0000000000    1.0
        0.0000000000    0.4794520548    0.0000000000    1.0
        0.0000000000    0.4726027397    0.0000000000    1.0
        0.0000000000    0.4657534247    0.0000000000    1.0
        0.0000000000    0.4589041096    0.0000000000    1.0
        0.0000000000    0.4520547945    0.0000000000    1.0
        0.0000000000    0.4452054795    0.0000000000    1.0
        0.0000000000    0.4383561644    0.0000000000    1.0
        0.0000000000    0.4315068493    0.0000000000    1.0
        0.0000000000    0.4246575342    0.0000000000    1.0
        0.0000000000    0.4178082192    0.0000000000    1.0
        0.0000000000    0.4109589041    0.0000000000    1.0
        0.0000000000    0.4041095890    0.0000000000    1.0
        0.0000000000    0.3972602740    0.0000000000    1.0
        0.0000000000    0.3904109589    0.0000000000    1.0
        0.0000000000    0.3835616438    0.0000000000    1.0
        0.0000000000    0.3767123288    0.0000000000    1.0
        0.0000000000    0.3698630137    0.0000000000    1.0
        0.0000000000    0.3630136986    0.0000000000    1.0
        0.0000000000    0.3561643836    0.0000000000    1.0
        0.0000000000    0.3493150685    0.0000000000    1.0
        0.0000000000    0.3424657534    0.0000000000    1.0
        0.0000000000    0.3356164384    0.0000000000    1.0
        0.0000000000    0.3287671233    0.0000000000    1.0
        0.0000000000    0.3219178082    0.0000000000    1.0
        0.0000000000    0.3150684932    0.0000000000    1.0
        0.0000000000    0.3082191781    0.0000000000    1.0
        0.0000000000    0.3013698630    0.0000000000    1.0
        0.0000000000    0.2945205479    0.0000000000    1.0
        0.0000000000    0.2876712329    0.0000000000    1.0
        0.0000000000    0.2808219178    0.0000000000    1.0
        0.0000000000    0.2739726027    0.0000000000    1.0
        0.0000000000    0.2671232877    0.0000000000    1.0
        0.0000000000    0.2602739726    0.0000000000    1.0
        0.0000000000    0.2534246575    0.0000000000    1.0
        0.0000000000    0.2465753425    0.0000000000    1.0
        0.0000000000    0.2397260274    0.0000000000    1.0
        0.0000000000    0.2328767123    0.0000000000    1.0
        0.0000000000    0.2260273973    0.0000000000    1.0
        0.0000000000    0.2191780822    0.0000000000    1.0
        0.0000000000    0.2123287671    0.0000000000    1.0
        0.0000000000    0.2054794521    0.0000000000    1.0
        0.0000000000    0.1986301370    0.0000000000    1.0
        0.0000000000    0.1917808219    0.0000000000    1.0
        0.0000000000    0.1849315068    0.0000000000    1.0
        0.0000000000    0.1780821918    0.0000000000    1.0
        0.0000000000    0.1712328767    0.0000000000    1.0
        0.0000000000    0.1643835616    0.0000000000    1.0
        0.0000000000    0.1575342466    0.0000000000    1.0
        0.0000000000    0.1506849315    0.0000000000    1.0
        0.0000000000    0.1438356164    0.0000000000    1.0
        0.0000000000    0.1369863014    0.0000000000    1.0
        0.0000000000    0.1301369863    0.0000000000    1.0
        0.0000000000    0.1232876712    0.0000000000    1.0
        0.0000000000    0.1164383562    0.0000000000    1.0
        0.0000000000    0.1095890411    0.0000000000    1.0
        0.0000000000    0.1027397260    0.0000000000    1.0
        0.0000000000    0.0958904110    0.0000000000    1.0
        0.0000000000    0.0890410959    0.0000000000    1.0
        0.0000000000    0.0821917808    0.0000000000    1.0
        0.0000000000    0.0753424658    0.0000000000    1.0
        0.0000000000    0.0684931507    0.0000000000    1.0
        0.0000000000    0.0616438356    0.0000000000    1.0
        0.0000000000    0.0547945205    0.0000000000    1.0
        0.0000000000    0.0479452055    0.0000000000    1.0
        0.0000000000    0.0410958904    0.0000000000    1.0
        0.0000000000    0.0342465753    0.0000000000    1.0
        0.0000000000    0.0273972603    0.0000000000    1.0
        0.0000000000    0.0205479452    0.0000000000    1.0
        0.0000000000    0.0136986301    0.0000000000    1.0
        0.0000000000    0.0068493151    0.0000000000    1.0
        0.0000000000    0.0000000000    0.0000000000    1.0
